11
0 486 191 220 154 131 353 195 465 152 469 
486 0 280 299 492 287 127 291 119 438 435 
191 280 0 294 485 346 274 445 109 327 146 
220 299 294 0 377 242 479 176 229 171 296 
154 492 485 377 0 284 203 149 379 168 201 
131 287 346 242 284 0 348 349 400 341 137 
353 127 274 479 203 348 0 428 132 156 366 
195 291 445 176 149 349 428 0 467 350 351 
465 119 109 229 379 400 132 467 0 313 125 
152 438 327 171 168 341 156 350 313 0 296 
469 435 146 296 201 137 366 351 125 296 0 
